p cnf 37 130
-1 2 0
-3 2 0
1 3 -2 0
-4 5 0
-6 5 0
-7 5 0
5 -8 0
5 -9 0
5 -10 0
5 -11 0
5 -12 0
5 -13 0
5 -14 0
5 -15 0
5 -16 0
5 -17 0
5 -18 0
5 -19 0
5 -20 0
5 -21 0
5 -22 0
5 -23 0
5 -24 0
5 -25 0
5 -26 0
5 -27 0
5 -28 0
5 -29 0
5 -30 0
5 -31 0
-32 -33 5 -2 0
32 4 6 7 8 9 10 11 12 13 14 15 16 17 18 19 20 21 22 23 24 25 26 27 28 29 30 31 -5 0
4 6 7 8 9 10 11 12 13 14 15 16 17 18 19 20 21 22 23 24 25 26 27 28 29 30 31 2 -5 0
33 4 6 7 8 9 10 11 12 13 14 15 16 17 18 19 20 21 22 23 24 25 26 27 28 29 30 31 -5 0
-4 34 0
-6 34 0
-7 34 0
-8 34 0
-9 34 0
-10 34 0
-11 34 0
-12 34 0
-13 34 0
-14 34 0
-15 34 0
-16 34 0
-17 34 0
-18 34 0
-19 34 0
-20 34 0
-21 34 0
-22 34 0
-23 34 0
-24 34 0
-25 34 0
-26 34 0
-27 34 0
-28 34 0
-29 34 0
-30 34 0
-31 34 0
-32 -33 -2 34 0
32 4 6 7 8 9 10 11 12 13 14 15 16 17 18 19 20 21 22 23 24 25 26 27 28 29 30 31 -34 0
4 6 7 8 9 10 11 12 13 14 15 16 17 18 19 20 21 22 23 24 25 26 27 28 29 30 31 2 -34 0
33 4 6 7 8 9 10 11 12 13 14 15 16 17 18 19 20 21 22 23 24 25 26 27 28 29 30 31 -34 0
-4 35 0
-6 35 0
-7 35 0
-8 35 0
-9 35 0
-10 35 0
-11 35 0
-12 35 0
-13 35 0
-14 35 0
-15 35 0
-16 35 0
-17 35 0
-18 35 0
-19 35 0
-20 35 0
-21 35 0
-22 35 0
-23 35 0
-24 35 0
-25 35 0
-26 35 0
-27 35 0
-28 35 0
-29 35 0
-30 35 0
-31 35 0
4 6 7 8 9 10 11 12 13 14 15 16 17 18 19 20 21 22 23 24 25 26 27 28 29 30 31 -35 0
-1 36 0
-3 36 0
-32 36 0
-33 36 0
-4 36 0
-6 36 0
-7 36 0
-8 36 0
-9 36 0
-10 36 0
-11 36 0
-12 36 0
-13 36 0
-14 36 0
-15 36 0
-16 36 0
-17 36 0
-18 36 0
-19 36 0
-20 36 0
-21 36 0
-22 36 0
-23 36 0
-24 36 0
-25 36 0
-26 36 0
-27 36 0
-28 36 0
-29 36 0
-30 36 0
-31 36 0
36 -37 0
37 -35 36 0
34 36 0
1 3 32 33 4 6 7 8 9 10 11 12 13 14 15 16 17 18 19 20 21 22 23 24 25 26 27 28 29 30 31 37 35 -34 -36 0
37 -34 35 -36 0
37 35 -34 0
c 1 k!0
c 3 k!1
c 32 k!2
c 33 k!3
c 4 k!4
c 6 k!5
c 7 k!6
c 8 k!7
c 9 k!8
c 10 k!9
c 11 k!10
c 12 k!11
c 13 k!12
c 14 k!13
c 15 k!14
c 16 k!15
c 17 k!16
c 18 k!17
c 19 k!18
c 20 k!19
c 21 k!20
c 22 k!21
c 23 k!22
c 24 k!23
c 25 k!24
c 26 k!25
c 27 k!26
c 28 k!27
c 29 k!28
c 30 k!29
c 31 k!30
c 37 k!31
c 5 k!33
c 2 k!32
c 34 k!34
c 35 k!35
c 36 k!36